c generated by sgen
p cnf 45 100
-2 -3 -4 0
-1 -3 -4 0
-1 -2 -4 0
-1 -2 -3 0
-6 -7 -8 0
-5 -7 -8 0
-5 -6 -8 0
-5 -6 -7 0
-10 -11 -12 0
-9 -11 -12 0
-9 -10 -12 0
-9 -10 -11 0
-14 -15 -16 0
-13 -15 -16 0
-13 -14 -16 0
-13 -14 -15 0
-18 -19 -20 0
-17 -19 -20 0
-17 -18 -20 0
-17 -18 -19 0
-22 -23 -24 0
-21 -23 -24 0
-21 -22 -24 0
-21 -22 -23 0
-26 -27 -28 0
-25 -27 -28 0
-25 -26 -28 0
-25 -26 -27 0
-30 -31 -32 0
-29 -31 -32 0
-29 -30 -32 0
-29 -30 -31 0
-34 -35 -36 0
-33 -35 -36 0
-33 -34 -36 0
-33 -34 -35 0
-38 -39 -40 0
-37 -39 -40 0
-37 -38 -40 0
-37 -38 -39 0
-41 -42 -43 0
-41 -42 -44 0
-41 -42 -45 0
-41 -43 -44 0
-41 -43 -45 0
-41 -44 -45 0
-42 -43 -44 0
-42 -43 -45 0
-42 -44 -45 0
-43 -44 -45 0
7 31 36 0
26 31 36 0
26 7 36 0
26 7 31 0
40 5 19 0
45 5 19 0
45 40 19 0
45 40 5 0
25 4 13 0
37 4 13 0
37 25 13 0
37 25 4 0
35 44 18 0
1 44 18 0
1 35 18 0
1 35 44 0
2 12 6 0
29 12 6 0
29 2 6 0
29 2 12 0
39 34 21 0
10 34 21 0
10 39 21 0
10 39 34 0
43 16 33 0
8 16 33 0
8 43 33 0
8 43 16 0
15 28 11 0
20 28 11 0
20 15 11 0
20 15 28 0
3 41 27 0
24 41 27 0
24 3 27 0
24 3 41 0
17 14 23 0
32 14 23 0
32 17 23 0
32 17 14 0
38 9 42 0
38 9 30 0
38 9 22 0
38 42 30 0
38 42 22 0
38 30 22 0
9 42 30 0
9 42 22 0
9 30 22 0
42 30 22 0
